\* Problem: Unknown *\

Maximize
 obj: + xp_0_0 + xp_0_1 + xp_0_2 + xp_0_3 + xp_0_4 + xp_0_5 + xp_0_6
 + xp_1_0 + xp_1_1 + xp_2_0 + xp_2_1 + xp_2_2 + xp_2_3 + xp_2_4 + xp_3_0
 + xp_3_1 + xp_3_2 + xp_3_3 + xp_4_0 + xp_5_0 + xp_6_0 + xp_6_1 + xp_6_2
 + xp_7_0 + xp_7_1 + xp_8_0 + xp_9_0 + xp_10_0 + xp_10_1 + xp_11_0
 + xp_11_1 + xp_11_2 + xp_11_3 + xp_12_0 + xp_13_0 + xp_13_1 + xp_14_0
 + xp_14_1 + xp_14_2 + xp_15_0 + xp_16_0 + xp_16_1 + xp_17_0 + xp_17_1
 + xp_17_2 + xp_17_3 + xp_17_4 + xp_17_5 + xp_18_0 + xp_18_1 + xp_18_2
 + xp_19_0 + xp_19_1 + xp_19_2 + xp_19_3 + xp_19_4 + xp_19_5 + xp_20_0
 + xp_20_1 + xp_20_2 + xp_20_3 + xp_21_0 + xp_21_1 + xp_21_2 + xp_21_3
 + xp_21_4 + xp_22_0 + xp_22_1 + xp_22_2 + xp_22_3 + xp_22_4 + xp_23_0
 + xp_23_1 + xp_23_2

Subject To
 r_1: 0 xp_0_0 <= 29.2225609756098
 r_2: + xp_22_3 + xp_18_1 + xp_2_2 <= 29.0077821011673
 r_3: + xp_21_2 + xp_17_3 + xp_6_1 <= 30
 r_4: + xp_17_2 + xp_15_0 <= 30
 r_5: + xp_18_0 <= 28.8106343283582
 r_6: + xp_18_2 <= 30
 r_7: + xp_20_3 <= 29.2225609756098
 r_8: + xp_22_2 + xp_11_1 + xp_6_2 + xp_3_3 + xp_3_2 + xp_2_3
 <= 29.0077821011673
 r_9: + xp_23_2 + xp_11_3 + xp_3_1 <= 30
 r_10: + xp_17_4 + xp_3_0 <= 30
 r_11: + xp_18_2 + xp_11_2 <= 28.8106343283582
 r_12: + xp_11_0 <= 30
 r_13: 0 xp_0_0 <= 30
 r_14: + xp_21_3 + xp_19_4 + xp_14_0 + xp_0_3 + xp_0_1
 <= 29.0077821011673
 r_15: + xp_21_0 + xp_19_2 <= 29.2225609756098
 r_16: + xp_22_1 + xp_21_1 + xp_14_2 + xp_0_6 + xp_0_4 + xp_0_2
 <= 29.2225609756098
 r_17: + xp_0_0 <= 28.8106343283582
 r_18: + xp_21_2 + xp_4_0 <= 29.2225609756098
 r_19: + xp_19_0 <= 29.2225609756098
 r_20: + xp_21_4 + xp_19_5 + xp_19_3 + xp_19_1 + xp_14_1 + xp_0_5
 <= 29.2225609756098
 r_21: + xp_20_1 <= 29.0077821011673
 r_22: + xp_21_4 + xp_21_3 + xp_7_1 <= 29.0077821011673
 r_23: + xp_22_3 + xp_22_2 + xp_3_2 <= 29.0077821011673
 r_24: + xp_6_2 + xp_3_3 + xp_0_5 + xp_0_3 <= 29.0077821011673
 r_25: 0 xp_0_0 <= 29.0077821011673
 r_26: + xp_18_1 + xp_0_1 <= 28.8106343283582
 r_27: + xp_11_1 <= 29.0077821011673
 r_28: + xp_19_4 + xp_19_3 + xp_10_1 <= 29.0077821011673
 r_29: + xp_20_2 <= 29.2225609756098
 r_30: + xp_2_0 <= 29.0077821011673
 r_31: + xp_23_2 + xp_17_3 + xp_6_1 + xp_3_1 + xp_2_4 <= 30
 r_32: + xp_2_1 <= 30
 r_33: + xp_11_3 + xp_2_2 <= 30
 r_34: + xp_19_5 + xp_19_2 + xp_2_3 <= 30
 r_35: 0 xp_0_0 <= 29.2225609756098
 r_36: + xp_14_2 + xp_9_0 <= 29.0077821011673
 r_37: + xp_21_1 + xp_13_1 + xp_0_6 <= 30
 r_38: + xp_1_1 <= 30
 r_39: + xp_17_5 + xp_3_2 + xp_0_4 <= 30
 r_40: + xp_0_2 <= 28.8106343283582
 r_41: + xp_12_0 + xp_2_4 <= 29.0077821011673
 r_42: + xp_21_1 <= 30
 r_43: + xp_16_0 <= 30
 r_44: + xp_23_2 + xp_23_1 + xp_16_1 <= 30
 r_45: + xp_17_3 + xp_3_3 + xp_3_1 <= 30
 r_46: + xp_0_6 + xp_0_5 + xp_0_3 <= 28.8106343283582
 r_47: + xp_22_4 + xp_16_1 + xp_13_1 <= 30
 r_48: + xp_13_0 <= 30
 r_49: + xp_17_1 <= 30
 r_50: 0 xp_0_0 <= 28.8106343283582
 r_51: + xp_1_1 <= 30
 r_52: + xp_8_0 <= 30
 r_53: + xp_1_0 <= 30
 r_54: + xp_0_4 <= 28.8106343283582
 r_55: 0 xp_0_0 <= 30
 r_56: 0 xp_0_0 <= 30
 r_57: + xp_22_1 <= 28.8106343283582
 r_58: + xp_5_0 <= 28.8106343283582
 r_59: + xp_22_0 + xp_17_5 <= 28.8106343283582
 r_60: + xp_23_1 + xp_6_0 <= 28.8106343283582
 r_61: + xp_23_0 + xp_22_4 + xp_17_1 <= 28.8106343283582
 r_62: + xp_17_0 <= 28.8106343283582
 r_63: + xp_22_3 + xp_17_3 + xp_17_2 + xp_11_2 + xp_6_1
 <= 28.8106343283582
 r_64: + xp_23_2 + xp_22_2 + xp_17_4 + xp_6_2 <= 28.8106343283582
 r_65: + xp_21_4 + xp_20_1 + xp_19_3 + xp_14_1 + xp_10_1 + xp_7_1
 + xp_2_1 + xp_0_5 <= 29.0077821011673
 r_66: + xp_20_2 + xp_19_5 + xp_7_0 <= 30
 r_67: + xp_20_3 + xp_19_1 + xp_10_0 <= 30
 r_68: + xp_20_0 <= 29.2225609756098

Bounds
 0 <= xp_0_0 <= 27.184359287913
 0 <= xp_0_1 <= 8.27929843012454
 0 <= xp_0_2 <= 11.1620154135031
 0 <= xp_0_3 <= 3.72067180450102
 0 <= xp_0_4 <= 3.72067180450102
 0 <= xp_0_5 <= 2.27931331281176
 0 <= xp_0_6 <= 3.72067180450102
 0 <= xp_1_0 <= 19.2178651777365
 0 <= xp_1_1 <= 14.4133988833024
 0 <= xp_2_0 <= 20.6368698732243
 0 <= xp_2_1 <= 3.72067180450102
 0 <= xp_2_2 <= 4.73742722986062
 0 <= xp_2_3 <= 3.05026627607881
 0 <= xp_2_4 <= 1.0167554253596
 0 <= xp_3_0 <= 20.6480393299814
 0 <= xp_3_1 <= 2.04468030747632
 0 <= xp_3_2 <= 3.72067180450102
 0 <= xp_3_3 <= 4.40223190699313
 0 <= xp_4_0 <= 25.0279174407731
 0 <= xp_5_0 <= 25.0279174407731
 0 <= xp_6_0 <= 16.0893754976399
 0 <= xp_6_1 <= 3.21787509952797
 0 <= xp_6_2 <= 3.21787509952797
 0 <= xp_7_0 <= 18.5027818222858
 0 <= xp_7_1 <= 3.08379697038097
 0 <= xp_8_0 <= 19.3966360165992
 0 <= xp_9_0 <= 17.9888156605557
 0 <= xp_10_0 <= 15.4189848519049
 0 <= xp_10_1 <= 2.56983080865081
 0 <= xp_11_0 <= 26.0447026315071
 0 <= xp_11_1 <= 7.44134360900204
 0 <= xp_11_2 <= 3.72067180450102
 0 <= xp_11_3 <= 14.8826872180041
 0 <= xp_12_0 <= 16.8938442725218
 0 <= xp_13_0 <= 14.0782035604349
 0 <= xp_13_1 <= 2.34636726007248
 0 <= xp_14_0 <= 8.93854194313325
 0 <= xp_14_1 <= 4.46927097156663
 0 <= xp_14_2 <= 2.23463548578331
 0 <= xp_15_0 <= 15.4860239164784
 0 <= xp_16_0 <= 12.7374222689649
 0 <= xp_16_1 <= 2.12290371149415
 0 <= xp_17_0 <= 27.3072605189593
 0 <= xp_17_1 <= 2.49161484597659
 0 <= xp_17_2 <= 2.49161484597659
 0 <= xp_17_3 <= 3.72067180450102
 0 <= xp_17_4 <= 2.49161484597659
 0 <= xp_17_5 <= 4.98322969195318
 0 <= xp_18_0 <= 21.5530629810519
 0 <= xp_18_1 <= 4.44691717536518
 0 <= xp_18_2 <= 15.6089325888682
 0 <= xp_19_0 <= 28.2011221546162
 0 <= xp_19_1 <= 4.31283904621819
 0 <= xp_19_2 <= 2.15641952310909
 0 <= xp_19_3 <= 2.15641952310909
 0 <= xp_19_4 <= 2.15641952310909
 0 <= xp_19_5 <= 2.15641952310909
 0 <= xp_20_0 <= 26.413406324646
 0 <= xp_20_1 <= 4.08937549763985
 0 <= xp_20_2 <= 4.08937549763985
 0 <= xp_20_3 <= 5.76535955332095
 0 <= xp_21_0 <= 27.8435804768909
 0 <= xp_21_1 <= 3.59775569076753
 0 <= xp_21_2 <= 1.79887784538376
 0 <= xp_21_3 <= 3.59775569076753
 0 <= xp_21_4 <= 1.79887784538376
 0 <= xp_22_0 <= 20.1787733193105
 0 <= xp_22_1 <= 1.57541429680543
 0 <= xp_22_2 <= 1.57541429680543
 0 <= xp_22_3 <= 10.5921722026129
 0 <= xp_22_4 <= 3.15082859361086
 0 <= xp_23_0 <= 21.1843444052258
 0 <= xp_23_1 <= 10.5921722026129
 0 <= xp_23_2 <= 5.29608610130645

End
